
Gurobi 6.5.2 (linux64) logging started Sun Sep 18 18:51:33 2016


Gurobi 6.5.2 (linux64) logging started Sun Sep 18 18:51:33 2016

Optimize a model with 201 rows, 3565 columns and 8255 nonzeros
Coefficient statistics:
  Matrix range    [1e+00, 2e+00]
  Objective range [1e+00, 1e+02]
  Bounds range    [1e+00, 1e+00]
  RHS range       [1e+00, 1e+00]
Found heuristic solution: objective 1241
Presolve removed 50 rows and 1 columns
Presolve time: 0.01s
Presolved: 151 rows, 3564 columns, 7679 nonzeros
Variable types: 0 continuous, 3564 integer (3564 binary)

Root relaxation: objective 3.862500e+02, 106 iterations, 0.00 seconds

    Nodes    |    Current Node    |     Objective Bounds      |     Work
 Expl Unexpl |  Obj  Depth IntInf | Incumbent    BestBd   Gap | It/Node Time

     0     0  386.25000    0   36 1241.00000  386.25000  68.9%     -    0s
     0     0  422.83333    0   37 1241.00000  422.83333  65.9%     -    0s
     0     0  428.09358    0   67 1241.00000  428.09358  65.5%     -    0s
     0     0  428.67788    0   63 1241.00000  428.67788  65.5%     -    0s
     0     0  430.58653    0   69 1241.00000  430.58653  65.3%     -    0s
     0     0  431.61870    0   72 1241.00000  431.61870  65.2%     -    0s
     0     0  432.13818    0   65 1241.00000  432.13818  65.2%     -    0s
     0     0  432.62814    0   77 1241.00000  432.62814  65.1%     -    0s
     0     0  432.62814    0   77 1241.00000  432.62814  65.1%     -    0s
     0     2  432.62814    0   77 1241.00000  432.62814  65.1%     -    1s
*  723   651             134     724.0000000  437.47917  39.6%   4.2    2s
  1061   934  451.27897   15   98  724.00000  451.18702  37.7%   4.8    5s
  5653  3540     cutoff   98       724.00000  457.82536  36.8%   6.2   10s

Cutting planes:
  Gomory: 50
  Cover: 143
  MIR: 4
  Flow cover: 34
  Zero half: 6
  Lazy constraints: 797

Explored 6008 nodes (37936 simplex iterations) in 10.05 seconds
Thread count was 8 (of 8 available processors)

Time limit reached
Best objective 7.240000000000e+02, best bound 4.580000000000e+02, gap 36.7403%
